100
128
11
9
13
28
21
13
7
8
16
3
8
22
21
12
17
17
16
26
7
4
32
22
28
32
34
1
4
12
44
26
1
1
4
14
54
25
4
48
1
1
4
12
46
2
57
3
1
40
45
54
53
59
64
40
3
46
60
64
42
9
7
8
3
6
3
54
61
2
33
39
11
31
6
21
1
56
2
47
2
3
29
55
26
27
50
31
46
2
8
1
62
47
9
64
32
4
32
2
2
6